NAME: random100
TYPE: TSP
DIMENSION: 100
EDGE_WEIGHT_TYPE: EUC_2D
NODE_COORD_SECTION
1  125  374
2  240  450
3  365  134
4  98   292
5  412  367
6  221  301
7  459  429
8  188  49
9  67   365
10 201  411
11 308  217
12 414  257
13 152  380
14 26   412
15 320  95
16 178  174
17 77   138
18 344  301
19 89   215
20 250  440
21 423  92
22 329  364
23 158  301
24 372  178
25 195  88
26 91   40
27 281  206
28 359  401
29 450  50
30 115  312
31 489  298
32 203  140
33 408  345
34 145  108
35 280  419
36 56   202
37 369  484
38 224  390
39 198  471
40 96   176
41 389  121
42 351  290
43 277  97
44 485  361
45 174  250
46 410  205
47 140  60
48 303  465
49 228  485
50 373  38
51 87   320
52 390  201
53 169  99
54 267  189
55 191  344
56 91   251
57 456  320
58 173  395
59 420  429
60 123  256
61 496  481
62 239  233
63 294  142
64 72   487
65 165  222
66 83   34
67 265  47
68 448  158
69 132  283
70 325  332
71 242  287
72 100  79
73 312  458
74 369  271
75 37   114
76 180  439
77 249  316
78 199  362
79 450  283
80 344  220
81 215  498
82 267  424
83 158  422
84 480  192
85 99   59
86 362  356
87 442  102
88 212  59
89 78   275
90 275  260
91 153  467
92 488  270
93 371  83
94 317  317
95 401  209
96 283  372
97 49   178
98 451  393
99 229  182
100 94  121
EOF